sat
(objectives
 (total_wait 10)
)
((rprim_1_1 18))
((rprim_1_2 20))
((rprim_1_3 7))
((rprim_1_4 6))
((rprim_1_5 1))
((rprim_1_6 3))
((rprim_1_7 18))
((rprim_1_8 18))
((rprim_1_9 8))
((rprim_1_10 1))
((rprim_1_11 15))
((rprim_1_12 20))
((rprim_1_13 1))
((rprim_1_14 3))
((rprim_1_15 11))
((rprim_1_16 1))
((rprim_1_17 21))
((rprim_1_18 19))
((rprim_1_19 21))
((rprim_1_20 11))
((rprim_1_21 1))
((rprim_1_22 18))
((rprim_1_23 1))
((rprim_1_24 20))
((rprim_1_25 18))
((rprim_1_26 1))
((rprim_1_27 19))
((rprim_1_28 6))
((rprim_1_29 2))
((rx_1_1 8))
((ry_1_1 0))
((rx_1_2 11))
((ry_1_2 0))
((rx_1_3 8))
((ry_1_3 0))
((rx_1_4 7))
((ry_1_4 1))
((rx_1_5 8))
((ry_1_5 2))
((rx_1_6 8))
((ry_1_6 2))
((rx_1_7 8))
((ry_1_7 1))
((rx_1_8 11))
((ry_1_8 1))
((rx_1_9 14))
((ry_1_9 1))
((rx_1_10 13))
((ry_1_10 0))
((rx_1_11 13))
((ry_1_11 0))
((rx_1_12 11))
((ry_1_12 2))
((rx_1_13 8))
((ry_1_13 2))
((rx_1_14 8))
((ry_1_14 2))
((rx_1_15 8))
((ry_1_15 1))
((rx_1_16 8))
((ry_1_16 3))
((rx_1_17 8))
((ry_1_17 3))
((rx_1_18 8))
((ry_1_18 0))
((rx_1_19 8))
((ry_1_19 3))
((rx_1_20 8))
((ry_1_20 0))
((rx_1_21 8))
((ry_1_21 2))
((rx_1_22 8))
((ry_1_22 2))
((rx_1_23 11))
((ry_1_23 2))
((rx_1_24 11))
((ry_1_24 2))
((rx_1_25 8))
((ry_1_25 2))
((rx_1_26 11))
((ry_1_26 2))
((rx_1_27 11))
((ry_1_27 2))
((rx_1_28 11))
((ry_1_28 5))
((rx_1_29 12))
((ry_1_29 6))
((rx_1_30 13))
((ry_1_30 6))
((total_rcost 0))
((wprim_1_1 1))
((wprim_1_2 1))
((wprim_1_3 1))
((wprim_1_4 1))
((wprim_1_5 2))
((wprim_1_6 0))
((wprim_1_7 1))
((wprim_1_8 1))
((wprim_1_9 1))
((wprim_1_10 1))
((wprim_1_11 0))
((wprim_1_12 1))
((wprim_1_13 1))
((wprim_1_14 1))
((wprim_1_15 1))
((wprim_1_16 2))
((wprim_1_17 1))
((wprim_1_18 1))
((wprim_1_19 1))
((wprim_1_20 1))
((wprim_1_21 2))
((wprim_1_22 1))
((wprim_1_23 1))
((wprim_1_24 1))
((wprim_1_25 1))
((wprim_1_26 1))
((wprim_1_27 1))
((wprim_1_28 1))
((wprim_1_29 1))
((wprim_2_1 1))
((wprim_2_2 0))
((wprim_2_3 1))
((wprim_2_4 0))
((wprim_2_5 1))
((wprim_2_6 1))
((wprim_2_7 1))
((wprim_2_8 1))
((wprim_2_9 1))
((wprim_2_10 2))
((wprim_2_11 1))
((wprim_2_12 1))
((wprim_2_13 1))
((wprim_2_14 1))
((wprim_2_15 1))
((wprim_2_16 1))
((wprim_2_17 1))
((wprim_2_18 1))
((wprim_2_19 1))
((wprim_2_20 1))
((wprim_2_21 1))
((wprim_2_22 0))
((wprim_2_23 2))
((wprim_2_24 1))
((wprim_2_25 1))
((wprim_2_26 1))
((wprim_2_27 1))
((wprim_2_28 1))
((wprim_2_29 1))
((wtraj_1_1 1))
((wtraj_1_2 2))
((wtraj_1_3 3))
((wtraj_1_4 4))
((wtraj_1_5 1))
((wtraj_1_6 1))
((wtraj_1_7 1))
((wtraj_1_8 2))
((wtraj_1_9 3))
((wtraj_1_10 4))
((wtraj_1_11 1))
((wtraj_1_12 1))
((wtraj_1_13 2))
((wtraj_1_14 3))
((wtraj_1_15 4))
((wtraj_1_16 1))
((wtraj_1_17 1))
((wtraj_1_18 2))
((wtraj_1_19 3))
((wtraj_1_20 4))
((wtraj_1_21 1))
((wtraj_1_22 1))
((wtraj_1_23 2))
((wtraj_1_24 3))
((wtraj_1_25 4))
((wtraj_1_26 1))
((wtraj_1_27 2))
((wtraj_1_28 3))
((wtraj_1_29 4))
((wtraj_1_30 1))
((wtraj_2_1 1))
((wtraj_2_2 2))
((wtraj_2_3 2))
((wtraj_2_4 3))
((wtraj_2_5 3))
((wtraj_2_6 4))
((wtraj_2_7 5))
((wtraj_2_8 6))
((wtraj_2_9 1))
((wtraj_2_10 2))
((wtraj_2_11 2))
((wtraj_2_12 3))
((wtraj_2_13 4))
((wtraj_2_14 5))
((wtraj_2_15 6))
((wtraj_2_16 1))
((wtraj_2_17 2))
((wtraj_2_18 3))
((wtraj_2_19 4))
((wtraj_2_20 5))
((wtraj_2_21 6))
((wtraj_2_22 1))
((wtraj_2_23 1))
((wtraj_2_24 1))
((wtraj_2_25 2))
((wtraj_2_26 3))
((wtraj_2_27 4))
((wtraj_2_28 5))
((wtraj_2_29 6))
((wtraj_2_30 1))
((wx_1_1 7))
((wy_1_1 3))
((wx_1_2 4))
((wy_1_2 5))
((wx_1_3 1))
((wy_1_3 3))
((wx_1_4 4))
((wy_1_4 1))
((wx_1_5 7))
((wy_1_5 3))
((wx_1_6 7))
((wy_1_6 3))
((wx_1_7 7))
((wy_1_7 3))
((wx_1_8 4))
((wy_1_8 5))
((wx_1_9 1))
((wy_1_9 3))
((wx_1_10 4))
((wy_1_10 1))
((wx_1_11 7))
((wy_1_11 3))
((wx_1_12 7))
((wy_1_12 3))
((wx_1_13 4))
((wy_1_13 5))
((wx_1_14 1))
((wy_1_14 3))
((wx_1_15 4))
((wy_1_15 1))
((wx_1_16 7))
((wy_1_16 3))
((wx_1_17 7))
((wy_1_17 3))
((wx_1_18 4))
((wy_1_18 5))
((wx_1_19 1))
((wy_1_19 3))
((wx_1_20 4))
((wy_1_20 1))
((wx_1_21 7))
((wy_1_21 3))
((wx_1_22 7))
((wy_1_22 3))
((wx_1_23 4))
((wy_1_23 5))
((wx_1_24 1))
((wy_1_24 3))
((wx_1_25 4))
((wy_1_25 1))
((wx_1_26 7))
((wy_1_26 3))
((wx_1_27 4))
((wy_1_27 5))
((wx_1_28 1))
((wy_1_28 3))
((wx_1_29 4))
((wy_1_29 1))
((wx_1_30 7))
((wy_1_30 3))
((wx_2_1 11))
((wy_2_1 3))
((wx_2_2 13))
((wy_2_2 1))
((wx_2_3 13))
((wy_2_3 1))
((wx_2_4 15))
((wy_2_4 1))
((wx_2_5 15))
((wy_2_5 1))
((wx_2_6 17))
((wy_2_6 3))
((wx_2_7 15))
((wy_2_7 5))
((wx_2_8 13))
((wy_2_8 5))
((wx_2_9 11))
((wy_2_9 3))
((wx_2_10 13))
((wy_2_10 1))
((wx_2_11 13))
((wy_2_11 1))
((wx_2_12 15))
((wy_2_12 1))
((wx_2_13 17))
((wy_2_13 3))
((wx_2_14 15))
((wy_2_14 5))
((wx_2_15 13))
((wy_2_15 5))
((wx_2_16 11))
((wy_2_16 3))
((wx_2_17 13))
((wy_2_17 1))
((wx_2_18 15))
((wy_2_18 1))
((wx_2_19 17))
((wy_2_19 3))
((wx_2_20 15))
((wy_2_20 5))
((wx_2_21 13))
((wy_2_21 5))
((wx_2_22 11))
((wy_2_22 3))
((wx_2_23 11))
((wy_2_23 3))
((wx_2_24 11))
((wy_2_24 3))
((wx_2_25 13))
((wy_2_25 1))
((wx_2_26 15))
((wy_2_26 1))
((wx_2_27 17))
((wy_2_27 3))
((wx_2_28 15))
((wy_2_28 5))
((wx_2_29 13))
((wy_2_29 5))
((wx_2_30 11))
((wy_2_30 3))
((ch_1_1 20))
((ch_1_2 18))
((ch_1_3 16))
((ch_1_4 14))
((ch_1_5 12))
((ch_1_6 20))
((ch_1_7 20))
((ch_1_8 18))
((ch_1_9 16))
((ch_1_10 14))
((ch_1_11 12))
((ch_1_12 12))
((ch_1_13 10))
((ch_1_14 8))
((ch_1_15 6))
((ch_1_16 4))
((ch_1_17 14))
((ch_1_18 12))
((ch_1_19 10))
((ch_1_20 8))
((ch_1_21 6))
((ch_1_22 16))
((ch_1_23 14))
((ch_1_24 12))
((ch_1_25 10))
((ch_1_26 8))
((ch_1_27 6))
((ch_1_28 4))
((ch_1_29 2))
((ch_1_30 0))
((ch_2_1 20))
((ch_2_2 18))
((ch_2_3 18))
((ch_2_4 16))
((ch_2_5 16))
((ch_2_6 15))
((ch_2_7 13))
((ch_2_8 11))
((ch_2_9 10))
((ch_2_10 8))
((ch_2_11 18))
((ch_2_12 17))
((ch_2_13 15))
((ch_2_14 13))
((ch_2_15 12))
((ch_2_16 10))
((ch_2_17 8))
((ch_2_18 7))
((ch_2_19 5))
((ch_2_20 3))
((ch_2_21 2))
((ch_2_22 0))
((ch_2_23 0))
((ch_2_24 10))
((ch_2_25 8))
((ch_2_26 6))
((ch_2_27 5))
((ch_2_28 3))
((ch_2_29 1))
((ch_2_30 0))
((rechcount_1_1 0))
((rechcount_1_2 0))
((rechcount_1_3 0))
((rechcount_1_4 0))
((rechcount_1_5 1))
((rechcount_1_6 0))
((rechcount_1_7 0))
((rechcount_1_8 0))
((rechcount_1_9 0))
((rechcount_1_10 0))
((rechcount_1_11 0))
((rechcount_1_12 0))
((rechcount_1_13 0))
((rechcount_1_14 0))
((rechcount_1_15 0))
((rechcount_1_16 1))
((rechcount_1_17 0))
((rechcount_1_18 0))
((rechcount_1_19 0))
((rechcount_1_20 0))
((rechcount_1_21 1))
((rechcount_1_22 0))
((rechcount_1_23 0))
((rechcount_1_24 0))
((rechcount_1_25 0))
((rechcount_1_26 0))
((rechcount_1_27 0))
((rechcount_1_28 0))
((rechcount_1_29 0))
((rechcount_2_1 0))
((rechcount_2_2 0))
((rechcount_2_3 0))
((rechcount_2_4 0))
((rechcount_2_5 0))
((rechcount_2_6 0))
((rechcount_2_7 0))
((rechcount_2_8 0))
((rechcount_2_9 0))
((rechcount_2_10 1))
((rechcount_2_11 0))
((rechcount_2_12 0))
((rechcount_2_13 0))
((rechcount_2_14 0))
((rechcount_2_15 0))
((rechcount_2_16 0))
((rechcount_2_17 0))
((rechcount_2_18 0))
((rechcount_2_19 0))
((rechcount_2_20 0))
((rechcount_2_21 0))
((rechcount_2_22 0))
((rechcount_2_23 1))
((rechcount_2_24 0))
((rechcount_2_25 0))
((rechcount_2_26 0))
((rechcount_2_27 0))
((rechcount_2_28 0))
((rechcount_2_29 0))
((waitcount_1_1 0))
((waitcount_1_2 0))
((waitcount_1_3 0))
((waitcount_1_4 0))
((waitcount_1_5 1))
((waitcount_1_6 1))
((waitcount_1_7 0))
((waitcount_1_8 0))
((waitcount_1_9 0))
((waitcount_1_10 0))
((waitcount_1_11 1))
((waitcount_1_12 0))
((waitcount_1_13 0))
((waitcount_1_14 0))
((waitcount_1_15 0))
((waitcount_1_16 1))
((waitcount_1_17 0))
((waitcount_1_18 0))
((waitcount_1_19 0))
((waitcount_1_20 0))
((waitcount_1_21 1))
((waitcount_1_22 0))
((waitcount_1_23 0))
((waitcount_1_24 0))
((waitcount_1_25 0))
((waitcount_1_26 0))
((waitcount_1_27 0))
((waitcount_1_28 0))
((waitcount_1_29 0))
((waitcount_2_1 0))
((waitcount_2_2 1))
((waitcount_2_3 0))
((waitcount_2_4 1))
((waitcount_2_5 0))
((waitcount_2_6 0))
((waitcount_2_7 0))
((waitcount_2_8 0))
((waitcount_2_9 0))
((waitcount_2_10 1))
((waitcount_2_11 0))
((waitcount_2_12 0))
((waitcount_2_13 0))
((waitcount_2_14 0))
((waitcount_2_15 0))
((waitcount_2_16 0))
((waitcount_2_17 0))
((waitcount_2_18 0))
((waitcount_2_19 0))
((waitcount_2_20 0))
((waitcount_2_21 0))
((waitcount_2_22 1))
((waitcount_2_23 1))
((waitcount_2_24 0))
((waitcount_2_25 0))
((waitcount_2_26 0))
((waitcount_2_27 0))
((waitcount_2_28 0))
((waitcount_2_29 0))
((rechassigned_1_1 1))
((rechassigned_1_2 1))
((rechassigned_1_3 1))
((rechassigned_1_4 1))
((rechassigned_1_5 1))
((rechassigned_1_6 1))
((rechassigned_1_7 1))
((rechassigned_1_8 1))
((rechassigned_1_9 1))
((rechassigned_1_10 1))
((rechassigned_1_11 1))
((rechassigned_1_12 1))
((rechassigned_1_13 1))
((rechassigned_1_14 1))
((rechassigned_1_15 1))
((rechassigned_1_16 1))
((rechassigned_1_17 1))
((rechassigned_1_18 1))
((rechassigned_1_19 1))
((rechassigned_1_20 1))
((rechassigned_1_21 1))
((rechassigned_1_22 1))
((rechassigned_1_23 1))
((rechassigned_1_24 1))
((rechassigned_1_25 1))
((rechassigned_1_26 1))
((rechassigned_1_27 1))
((rechassigned_1_28 1))
((rechassigned_1_29 1))
((rechassigned_2_1 1))
((rechassigned_2_2 2))
((rechassigned_2_3 1))
((rechassigned_2_4 1))
((rechassigned_2_5 1))
((rechassigned_2_6 1))
((rechassigned_2_7 1))
((rechassigned_2_8 1))
((rechassigned_2_9 1))
((rechassigned_2_10 1))
((rechassigned_2_11 1))
((rechassigned_2_12 1))
((rechassigned_2_13 1))
((rechassigned_2_14 1))
((rechassigned_2_15 1))
((rechassigned_2_16 1))
((rechassigned_2_17 1))
((rechassigned_2_18 1))
((rechassigned_2_19 1))
((rechassigned_2_20 1))
((rechassigned_2_21 1))
((rechassigned_2_22 1))
((rechassigned_2_23 1))
((rechassigned_2_24 1))
((rechassigned_2_25 1))
((rechassigned_2_26 1))
((rechassigned_2_27 1))
((rechassigned_2_28 1))
((rechassigned_2_29 1))
((total_rech 0))
